25944.9
0 36 58 56 6 69 61 76 35 84 11 9 26 72 47 40 94 81 60 64 66 23 70 8 21 59 33 85 87 73 67 28 2 37 65 71 43 19 15 14 53 46 5 29 80 38 91 57 41 50 12 55 98 39 68 24 75 48 96 42 77 16 7 10 74 30 18 22 99 93 51 3 89 13 17 34 88 79 45 27 1 54 86 82 25 62 44 31 97 49 20 90 63 52 95 78 83 32 4 92 
